NAME : synthetic_frozen_micro_5
TYPE : CVRP
COMMENT : Scion controlled synthetic frozen fixture
DIMENSION : 5
EDGE_WEIGHT_TYPE : EUC_2D
CAPACITY : 6
NODE_COORD_SECTION
1 0 0
2 0 1
3 0 2
4 0 5
5 2 1
DEMAND_SECTION
1 0
2 1
3 1
4 1
5 1
DEPOT_SECTION
1
-1
EOF
